n1 = 5;
adjacent1 = [| 0, 0, 0, 0, 1
| 0, 0, 1, 0, 0
| 0, 1, 0, 0, 0
| 0, 0, 0, 0, 0
| 1, 0, 0, 0, 0 |];
n2 = 5;
adjacent2 = [| 0, 0, 1, 1, 1
| 0, 0, 1, 1, 0
| 1, 1, 0, 0, 0
| 1, 1, 0, 0, 0
| 1, 0, 0, 0, 0 |];
vertexDeletionCost = [45, 45, 45, 45, 45];
vertexInsertionCost = [45, 45, 45, 45, 45];
vertexSubstitutionCost = [| 90, 20.8806130178211, 90, 90, 90
| 90, 90, 54.25172808307584, 90, 90
| 90, 49.502525188115406, 90, 90, 90
| 90, 90, 90, 90, 90
| 90, 90, 17.755280904564703, 90, 90 |];
edgeDeletionCost = [| 0.0, 0.0, 0.0, 0.0, 15.0
| 0.0, 0.0, 15.0, 0.0, 0.0
| 0.0, 15.0, 0.0, 0.0, 0.0
| 0.0, 0.0, 0.0, 0.0, 0.0
| 15.0, 0.0, 0.0, 0.0, 0.0 |];
edgeInsertionCost = [| 0.0, 0.0, 7.5, 7.5, 7.5
| 0.0, 0.0, 7.5, 7.5, 0.0
| 7.5, 7.5, 0.0, 0.0, 0.0
| 7.5, 7.5, 0.0, 0.0, 0.0
| 7.5, 0.0, 0.0, 0.0, 0.0 |];
edgeSubstitutionCost = array4d(1..n1, 1..n1, 1..n2, 1..n2, [0, 0, 7.5, 7.5, 7.5, 0, 0, 7.5, 7.5, 0, 7.5, 7.5, 0, 0, 0, 7.5, 7.5, 0, 0, 0, 7.5, 0, 0, 0, 0, 0, 0, 7.5, 7.5, 7.5, 0, 0, 7.5, 7.5, 0, 7.5, 7.5, 0, 0, 0, 7.5, 7.5, 0, 0, 0, 7.5, 0, 0, 0, 0, 0, 0, 7.5, 7.5, 7.5, 0, 0, 7.5, 7.5, 0, 7.5, 7.5, 0, 0, 0, 7.5, 7.5, 0, 0, 0, 7.5, 0, 0, 0, 0, 0, 0, 7.5, 7.5, 7.5, 0, 0, 7.5, 7.5, 0, 7.5, 7.5, 0, 0, 0, 7.5, 7.5, 0, 0, 0, 7.5, 0, 0, 0, 0, 15.0, 15.0, 7.5, 7.5, 7.5, 15.0, 15.0, 7.5, 7.5, 15.0, 7.5, 7.5, 15.0, 15.0, 15.0, 7.5, 7.5, 15.0, 15.0, 15.0, 7.5, 15.0, 15.0, 15.0, 15.0, 0, 0, 7.5, 7.5, 7.5, 0, 0, 7.5, 7.5, 0, 7.5, 7.5, 0, 0, 0, 7.5, 7.5, 0, 0, 0, 7.5, 0, 0, 0, 0, 0, 0, 7.5, 7.5, 7.5, 0, 0, 7.5, 7.5, 0, 7.5, 7.5, 0, 0, 0, 7.5, 7.5, 0, 0, 0, 7.5, 0, 0, 0, 0, 15.0, 15.0, 7.5, 7.5, 7.5, 15.0, 15.0, 7.5, 7.5, 15.0, 7.5, 7.5, 15.0, 15.0, 15.0, 7.5, 7.5, 15.0, 15.0, 15.0, 7.5, 15.0, 15.0, 15.0, 15.0, 0, 0, 7.5, 7.5, 7.5, 0, 0, 7.5, 7.5, 0, 7.5, 7.5, 0, 0, 0, 7.5, 7.5, 0, 0, 0, 7.5, 0, 0, 0, 0, 0, 0, 7.5, 7.5, 7.5, 0, 0, 7.5, 7.5, 0, 7.5, 7.5, 0, 0, 0, 7.5, 7.5, 0, 0, 0, 7.5, 0, 0, 0, 0, 0, 0, 7.5, 7.5, 7.5, 0, 0, 7.5, 7.5, 0, 7.5, 7.5, 0, 0, 0, 7.5, 7.5, 0, 0, 0, 7.5, 0, 0, 0, 0, 15.0, 15.0, 7.5, 7.5, 7.5, 15.0, 15.0, 7.5, 7.5, 15.0, 7.5, 7.5, 15.0, 15.0, 15.0, 7.5, 7.5, 15.0, 15.0, 15.0, 7.5, 15.0, 15.0, 15.0, 15.0, 0, 0, 7.5, 7.5, 7.5, 0, 0, 7.5, 7.5, 0, 7.5, 7.5, 0, 0, 0, 7.5, 7.5, 0, 0, 0, 7.5, 0, 0, 0, 0, 0, 0, 7.5, 7.5, 7.5, 0, 0, 7.5, 7.5, 0, 7.5, 7.5, 0, 0, 0, 7.5, 7.5, 0, 0, 0, 7.5, 0, 0, 0, 0, 0, 0, 7.5, 7.5, 7.5, 0, 0, 7.5, 7.5, 0, 7.5, 7.5, 0, 0, 0, 7.5, 7.5, 0, 0, 0, 7.5, 0, 0, 0, 0, 0, 0, 7.5, 7.5, 7.5, 0, 0, 7.5, 7.5, 0, 7.5, 7.5, 0, 0, 0, 7.5, 7.5, 0, 0, 0, 7.5, 0, 0, 0, 0, 0, 0, 7.5, 7.5, 7.5, 0, 0, 7.5, 7.5, 0, 7.5, 7.5, 0, 0, 0, 7.5, 7.5, 0, 0, 0, 7.5, 0, 0, 0, 0, 0, 0, 7.5, 7.5, 7.5, 0, 0, 7.5, 7.5, 0, 7.5, 7.5, 0, 0, 0, 7.5, 7.5, 0, 0, 0, 7.5, 0, 0, 0, 0, 0, 0, 7.5, 7.5, 7.5, 0, 0, 7.5, 7.5, 0, 7.5, 7.5, 0, 0, 0, 7.5, 7.5, 0, 0, 0, 7.5, 0, 0, 0, 0, 0, 0, 7.5, 7.5, 7.5, 0, 0, 7.5, 7.5, 0, 7.5, 7.5, 0, 0, 0, 7.5, 7.5, 0, 0, 0, 7.5, 0, 0, 0, 0, 15.0, 15.0, 7.5, 7.5, 7.5, 15.0, 15.0, 7.5, 7.5, 15.0, 7.5, 7.5, 15.0, 15.0, 15.0, 7.5, 7.5, 15.0, 15.0, 15.0, 7.5, 15.0, 15.0, 15.0, 15.0, 0, 0, 7.5, 7.5, 7.5, 0, 0, 7.5, 7.5, 0, 7.5, 7.5, 0, 0, 0, 7.5, 7.5, 0, 0, 0, 7.5, 0, 0, 0, 0, 0, 0, 7.5, 7.5, 7.5, 0, 0, 7.5, 7.5, 0, 7.5, 7.5, 0, 0, 0, 7.5, 7.5, 0, 0, 0, 7.5, 0, 0, 0, 0, 0, 0, 7.5, 7.5, 7.5, 0, 0, 7.5, 7.5, 0, 7.5, 7.5, 0, 0, 0, 7.5, 7.5, 0, 0, 0, 7.5, 0, 0, 0, 0, 0, 0, 7.5, 7.5, 7.5, 0, 0, 7.5, 7.5, 0, 7.5, 7.5, 0, 0, 0, 7.5, 7.5, 0, 0, 0, 7.5, 0, 0, 0, 0]);
